p wcnf 7 24 106
106 1 2 0
106 1 3 0
106 1 4 0
106 1 5 0
106 2 3 0
106 2 4 0
106 2 5 0
106 2 6 0
106 3 5 0
106 3 6 0
106 3 7 0
106 4 5 0
106 4 6 0
106 4 7 0
106 5 6 0
106 5 7 0
106 6 7 0
13 -1 0
12 -2 0
12 -3 0
12 -4 0
11 -5 0
12 -6 0
13 -7 0
